PROBLEM NAME: eil51_n8
KNAPSACK DATA TYPE: multiple strongly correlated
DIMENSION: 8
NUMBER OF ITEMS: 35
CAPACITY OF KNAPSACK: 9936
MIN SPEED: 0.1
MAX SPEED: 1
RENTING RATIO: 34.73
EDGE_WEIGHT_TYPE: CEIL_2D
NODE_COORD_SECTION	(INDEX, X, Y):
1	52	64
2	57	58
3	16	57
4	27	68
5	58	48
6	10	17
7	39	10
8	48	28
ITEMS SECTION	(INDEX, PROFIT, WEIGHT, ASSIGNED NODE NUMBER):
1	1179	979	4
2	1128	928	4
3	1092	792	4
4	1086	786	4
5	1048	848	4
6	1014	814	3
7	1014	714	3
8	1013	813	3
9	990	790	3
10	973	773	3
11	953	753	6
12	952	752	6
13	910	710	6
14	882	682	6
15	852	652	6
16	847	647	7
17	805	605	7
18	775	575	7
19	688	488	7
20	677	477	7
21	593	393	8
22	574	374	8
23	573	373	8
24	564	364	8
25	564	264	8
26	553	353	5
27	534	234	5
28	445	245	5
29	442	242	5
30	429	229	5
31	425	225	2
32	312	112	2
33	311	111	2
34	270	70	2
35	250	50	2
